r = [
0,43,31,43,20,15,21,29,28,9,26,34,29,43,4,19,29,14,41,14,9,23,26,1,16,29,0
];
p = [
0,29,29,24,25,25,8,25,18,5,22,19,29,4,5,24,23,6,23,5,20,13,4,14,17,14,0
];
e = [
0,20,12,5,11,18,13,4,11,14,3,17,20,3,1,20,3,12,9,7,1,19,9,13,15,9,0
];
d = [
0,410,406,416,394,393,408,407,424,388,401,401,426,431,401,396,421,404,412,407,375,420,413,374,401,414,432
];
d_bar = [
0,413,409,418,397,396,409,410,426,389,403,403,429,432,402,398,423,405,414,408,377,421,414,375,403,415,432
];
w = [
0,6.666666667,4,2.5,3.666666667,6,13,1.333333333,5.5,14,1.5,8.5,6.666666667,3,1,10,1.5,12,4.5,7,0.5,19,9,13,7.5,9,0
];
